problem_generation/data/GISP/train/er_n=64_m=1227_p=0.60_SET2_setparam=100.00_alpha=0.50_430.lp
maximize
OBJ:100x0 + 100x1 + 100x2 + 100x3 + 100x4 + 100x5 + 100x6 + 100x7 + 100x8 + 100x9 + 100x10 + 100x11 + 100x12 + 100x13 + 100x14 + 100x15 + 100x16 + 100x17 + 100x18 + 100x19 + 100x20 + 100x21 + 100x22 + 100x23 + 100x24 + 100x25 + 100x26 + 100x27 + 100x28 + 100x29 + 100x30 + 100x31 + 100x32 + 100x33 + 100x34 + 100x35 + 100x36 + 100x37 + 100x38 + 100x39 + 100x40 + 100x41 + 100x42 + 100x43 + 100x44 + 100x45 + 100x46 + 100x47 + 100x48 + 100x49 + 100x50 + 100x51 + 100x52 + 100x53 + 100x54 + 100x55 + 100x56 + 100x57 + 100x58 + 100x59 + 100x60 + 100x61 + 100x62 + 100x63 - y15_21 - y55_57 - y7_17 - y26_30 - y18_26 - y15_39 - y18_44 - y8_18 - y21_37 - y48_54 - y6_48 - y48_63 - y6_57 - y29_59 - y10_27 - y41_42 - y2_32 - y14_15 - y22_37 - y3_33 - y22_46 - y3_42 - y14_51 - y15_16 - y55_61 - y18_21 - y36_57 - y47_57 - y28_53 - y9_49 - y9_58 - y21_32 - y0_9 - y6_43 - y6_52 - y6_61 - y29_63 - y21_59 - y10_31 - y2_27 - y25_29 - y33_42 - y10_49 - y22_23 - y51_59 - y2_54 - y14_19 - y32_55 - y43_55 - y36_52 - y17_48 - y29_31 - y9_62 - y21_27 - y21_45 - y2_13 - y12_63 - y51_54 - y2_49 - y3_14 - y22_27 - y24_46 - y51_63 - y1_53 - y16_51 - y17_25 - y17_34 - y9_30 - y5_41 - y36_56 - y47_56 - y28_52 - y6_15 - y5_59 - y40_44 - y10_12 - y39_48 - y10_21 - y2_26 - y20_62 - y10_39 - y25_28 - y2_35 - y32_36 - y32_45 - y43_45 - y3_18 - y14_18 - y16_37 - y13_50 - y24_50 - y32_54 - y35_50 - y1_57 - y24_59 - y35_59 - y17_29 - y28_29 - y36_42 - y28_38 - y36_51 - y47_51 - y17_47 - y28_47 - y9_43 - y17_56 - y50_53 - y9_61 - y50_62 - y61_62 - y20_39 - y2_12 - y39_61 - y31_57 - y23_53 - y23_62 - y13_27 - y3_4 - y4_58 - y13_36 - y43_49 - y16_32 - y1_43 - y35_45 - y43_58 - y1_52 - y35_54 - y16_50 - y17_24 - y46_60 - y36_37 - y5_31 - y5_49 - y6_14 - y8_51 - y30_60 - y20_34 - y31_34 - y10_11 - y20_43 - y12_39 - y20_52 - y20_61 - y31_61 - y12_57 - y1_29 - y13_31 - y4_62 - y24_31 - y32_44 - y13_40 - y35_49 - y16_45 - y16_54 - y17_19 - y46_55 - y9_15 - y38_60 - y49_60 - y5_35 - y17_37 - y28_37 - y9_33 - y8_46 - y30_46 - y27_59 - y42_48 - y11_60 - y31_38 - y39_51 - y23_52 - y1_51 - y5_12 - y15_53 - y49_55 - y5_30 - y9_28 - y6_13 - y19_41 - y42_43 - y19_50 - y27_63 - y0_46 - y19_59 - y30_59 - y12_29 - y23_29 - y12_38 - y23_38 - y12_47 - y1_10 - y23_47 - y23_56 - y53_57 - y16_17 - y34_53 - y4_61 - y16_26 - y34_62 - y37_58 - y16_35 - y1_46 - y5_7 - y46_54 - y15_48 - y26_48 - y46_63 - y27_31 - y19_27 - y27_40 - y8_36 - y0_32 - y11_32 - y19_45 - y42_47 - y27_58 - y0_41 - y11_41 - y0_50 - y11_50 - y8_63 - y12_15 - y4_11 - y0_59 - y19_63 - y39_41 - y31_37 - y12_33 - y23_33 - y23_42 - y13_16 - y4_47 - y22_55 - y16_30 - y15_34 - y57_58 - y38_54 - y7_48 - y8_13 - y38_63 - y18_57 - y19_22 - y27_35 - y8_31 - y19_31 - y11_27 - y0_36 - y11_36 - y41_46 - y4_6 - y52_55 - y4_15 - y44_60 - y25_56 - y2_63 - y34_43 - y1_18 - y37_39 - y53_56 - y22_50 - y45_52 - y34_61 - y45_61 - y37_57 - y15_20 - y15_29 - y26_38 - y15_47 - y38_49 - y26_56 - y0_4 - y7_52 - y8_17 - y27_30 - y8_26 - y11_22 - y29_58 - y19_44 - y30_44 - y0_40 - y12_14 - y52_59 - y4_19 - y33_55 - y34_38 - y1_13 - y3_41 - y14_41 - y14_50 - y15_33 - y26_42 - y8_12 - y19_21 - y48_57 - y11_17 - y19_30 - y6_60 - y11_26 - y21_58 - y0_35 - y41_45 - y10_48 - y44_50 - y41_63 - y25_46 - y2_53 - y25_55 - y14_27 - y37_38 - y22_58 - y7_15 - y15_28 - y26_28 - y36_60 - y59_62 - y15_37 - y26_37 - y18_33 - y18_42 - y29_39 - y48_52 - y0_12 - y6_55 - y21_62 - y33_36 - y41_49 - y25_32 - y10_43 - y41_58 - y2_48 - y25_50 - y33_63 - y44_63 - y51_62 - y3_31 - y14_40 - y22_53 - y36_55 - y15_32 - y26_32 - y18_37 - y40_43 - y48_56 - y21_39 - y6_50 - y11_16 - y21_48 - y40_61 - y21_57 - y10_29 - y33_40 - y25_36 - y2_43 - y2_52 - y25_54 - y32_62 - y14_35 - y14_44 - y47_50 - y55_63 - y7_23 - y28_55 - y9_51 - y5_62 - y6_27 - y21_25 - y0_2 - y6_45 - y21_43 - y6_54 - y29_56 - y10_24 - y2_20 - y10_42 - y3_12 - y32_48 - y43_48 - y51_61 - y2_56 - y3_21 - y43_57 - y13_53 - y1_60 - y13_62 - y36_54 - y47_54 - y47_63 - y29_33 - y21_29 - y29_42 - y21_38 - y10_28 - y20_60 - y32_43 - y3_16 - y14_16 - y32_52 - y24_48 - y43_52 - y43_61 - y24_57 - y35_57 - y36_40 - y9_23 - y9_32 - y5_43 - y47_58 - y9_41 - y5_52 - y17_54 - y5_61 - y9_59 - y21_24 - y50_60 - y21_42 - y39_50 - y2_10 - y20_46 - y10_23 - y10_32 - y23_51 - y2_28 - y12_60 - y13_25 - y2_37 - y32_38 - y43_56 - y35_61 - y3_56 - y5_47 - y17_49 - y28_49 - y6_21 - y58_59 - y9_54 - y6_30 - y27_62 - y0_63 - y11_63 - y2_5 - y31_41 - y2_14 - y39_63 - y12_46 - y2_23 - y20_59 - y23_55 - y4_51 - y1_27 - y24_29 - y16_25 - y51_55 - y13_38 - y24_38 - y32_51 - y35_38 - y43_51 - y13_56 - y24_56 - y5_15 - y46_53 - y9_13 - y16_61 - y36_39 - y9_22 - y49_58 - y9_31 - y5_42 - y9_40 - y5_51 - y42_46 - y42_55 - y11_58 - y20_36 - y10_13 - y23_32 - y2_9 - y31_45 - y23_41 - y31_54 - y54_56 - y23_50 - y13_15 - y23_59 - y13_24 - y53_60 - y32_37 - y16_20 - y32_46 - y16_29 - y16_38 - y24_51 - y35_51 - y1_58 - y38_44 - y46_57 - y5_28 - y27_43 - y6_20 - y8_39 - y19_39 - y30_39 - y50_54 - y19_48 - y27_61 - y11_44 - y50_63 - y20_22 - y0_62 - y12_27 - y20_40 - y12_36 - y23_45 - y13_19 - y23_63 - y1_26 - y4_59 - y1_35 - y35_37 - y38_39 - y5_14 - y46_52 - y38_48 - y15_55 - y49_57 - y27_29 - y7_60 - y8_25 - y27_38 - y8_34 - y19_34 - y27_47 - y0_30 - y8_43 - y30_43 - y8_52 - y30_52 - y30_61 - y23_49 - y1_12 - y13_14 - y34_46 - y45_46 - y34_55 - y22_62 - y3_58 - y37_60 - y38_43 - y15_50 - y38_52 - y18_46 - y15_59 - y26_59 - y38_61 - y7_55 - y18_55 - y0_25 - y19_47 - y30_47 - y19_56 - y12_17 - y41_53 - y52_53 - y4_13 - y0_61 - y11_61 - y52_62 - y4_22 - y1_7 - y22_48 - y34_50 - y53_63 - y34_59 - y56_59 - y37_55 - y14_62 - y15_27 - y26_27 - y26_36 - y46_51 - y7_32 - y38_56 - y7_50 - y18_50 - y15_63 - y27_28 - y8_24 - y48_60 - y0_20 - y0_29 - y19_42 - y41_48 - y20_25 - y12_21 - y41_57 - y22_52 - y45_54 - y22_61 - y45_63 - y37_59 - y7_18 - y15_31 - y18_27 - y15_40 - y18_36 - y48_55 - y0_24 - y29_60 - y19_37 - y30_37 - y41_43 - y41_61 - y25_44 - y4_21 - y1_6 - y22_38 - y34_49 - y45_58 - y3_52 - y14_52 - y7_13 - y14_61 - y15_26 - y59_60 - y15_35 - y26_35 - y15_44 - y18_40 - y7_49 - y8_14 - y29_46 - y8_23 - y0_19 - y30_32 - y25_30 - y41_56 - y10_50 - y44_61 - y22_24 - y25_57 - y3_29 - y14_38 - y3_47 - y14_56
 Subject to
C1: x0+x1 <=1 
C2: x0+x2-y0_2 <=1 
C3: x0+x3 <=1 
C4: x0+x4-y0_4 <=1 
C5: x0+x5 <=1 
C6: x0+x8 <=1 
C7: x0+x9-y0_9 <=1 
C8: x0+x12-y0_12 <=1 
C9: x0+x14 <=1 
C10: x0+x17 <=1 
C11: x0+x18 <=1 
C12: x0+x19-y0_19 <=1 
C13: x0+x20-y0_20 <=1 
C14: x0+x24-y0_24 <=1 
C15: x0+x25-y0_25 <=1 
C16: x0+x26 <=1 
C17: x0+x27 <=1 
C18: x0+x29-y0_29 <=1 
C19: x0+x30-y0_30 <=1 
C20: x0+x32-y0_32 <=1 
C21: x0+x33 <=1 
C22: x0+x35-y0_35 <=1 
C23: x0+x36-y0_36 <=1 
C24: x0+x38 <=1 
C25: x0+x40-y0_40 <=1 
C26: x0+x41-y0_41 <=1 
C27: x0+x43 <=1 
C28: x0+x44 <=1 
C29: x0+x45 <=1 
C30: x0+x46-y0_46 <=1 
C31: x0+x48 <=1 
C32: x0+x50-y0_50 <=1 
C33: x0+x51 <=1 
C34: x0+x52 <=1 
C35: x0+x54 <=1 
C36: x0+x56 <=1 
C37: x0+x57 <=1 
C38: x0+x58 <=1 
C39: x0+x59-y0_59 <=1 
C40: x0+x60 <=1 
C41: x0+x61-y0_61 <=1 
C42: x0+x62-y0_62 <=1 
C43: x0+x63-y0_63 <=1 
C44: x1+x4 <=1 
C45: x1+x6-y1_6 <=1 
C46: x1+x7-y1_7 <=1 
C47: x1+x9 <=1 
C48: x1+x10-y1_10 <=1 
C49: x1+x12-y1_12 <=1 
C50: x1+x13-y1_13 <=1 
C51: x1+x14 <=1 
C52: x1+x16 <=1 
C53: x1+x18-y1_18 <=1 
C54: x1+x19 <=1 
C55: x1+x22 <=1 
C56: x1+x25 <=1 
C57: x1+x26-y1_26 <=1 
C58: x1+x27-y1_27 <=1 
C59: x1+x29-y1_29 <=1 
C60: x1+x31 <=1 
C61: x1+x33 <=1 
C62: x1+x34 <=1 
C63: x1+x35-y1_35 <=1 
C64: x1+x36 <=1 
C65: x1+x37 <=1 
C66: x1+x38 <=1 
C67: x1+x39 <=1 
C68: x1+x40 <=1 
C69: x1+x42 <=1 
C70: x1+x43-y1_43 <=1 
C71: x1+x46-y1_46 <=1 
C72: x1+x47 <=1 
C73: x1+x51-y1_51 <=1 
C74: x1+x52-y1_52 <=1 
C75: x1+x53-y1_53 <=1 
C76: x1+x55 <=1 
C77: x1+x56 <=1 
C78: x1+x57-y1_57 <=1 
C79: x1+x58-y1_58 <=1 
C80: x1+x60-y1_60 <=1 
C81: x1+x61 <=1 
C82: x2+x5-y2_5 <=1 
C83: x2+x8 <=1 
C84: x2+x9-y2_9 <=1 
C85: x2+x10-y2_10 <=1 
C86: x2+x12-y2_12 <=1 
C87: x2+x13-y2_13 <=1 
C88: x2+x14-y2_14 <=1 
C89: x2+x16 <=1 
C90: x2+x19 <=1 
C91: x2+x20-y2_20 <=1 
C92: x2+x22 <=1 
C93: x2+x23-y2_23 <=1 
C94: x2+x24 <=1 
C95: x2+x25 <=1 
C96: x2+x26-y2_26 <=1 
C97: x2+x27-y2_27 <=1 
C98: x2+x28-y2_28 <=1 
C99: x2+x29 <=1 
C100: x2+x30 <=1 
C101: x2+x32-y2_32 <=1 
C102: x2+x33 <=1 
C103: x2+x35-y2_35 <=1 
C104: x2+x36 <=1 
C105: x2+x37-y2_37 <=1 
C106: x2+x40 <=1 
C107: x2+x41 <=1 
C108: x2+x43-y2_43 <=1 
C109: x2+x45 <=1 
C110: x2+x48-y2_48 <=1 
C111: x2+x49-y2_49 <=1 
C112: x2+x50 <=1 
C113: x2+x52-y2_52 <=1 
C114: x2+x53-y2_53 <=1 
C115: x2+x54-y2_54 <=1 
C116: x2+x56-y2_56 <=1 
C117: x2+x59 <=1 
C118: x2+x60 <=1 
C119: x2+x63-y2_63 <=1 
C120: x3+x4-y3_4 <=1 
C121: x3+x8 <=1 
C122: x3+x9 <=1 
C123: x3+x12-y3_12 <=1 
C124: x3+x14-y3_14 <=1 
C125: x3+x16-y3_16 <=1 
C126: x3+x17 <=1 
C127: x3+x18-y3_18 <=1 
C128: x3+x19 <=1 
C129: x3+x21-y3_21 <=1 
C130: x3+x22 <=1 
C131: x3+x27 <=1 
C132: x3+x28 <=1 
C133: x3+x29-y3_29 <=1 
C134: x3+x30 <=1 
C135: x3+x31-y3_31 <=1 
C136: x3+x33-y3_33 <=1 
C137: x3+x35 <=1 
C138: x3+x36 <=1 
C139: x3+x37 <=1 
C140: x3+x40 <=1 
C141: x3+x41-y3_41 <=1 
C142: x3+x42-y3_42 <=1 
C143: x3+x43 <=1 
C144: x3+x44 <=1 
C145: x3+x46 <=1 
C146: x3+x47-y3_47 <=1 
C147: x3+x48 <=1 
C148: x3+x49 <=1 
C149: x3+x51 <=1 
C150: x3+x52-y3_52 <=1 
C151: x3+x54 <=1 
C152: x3+x56-y3_56 <=1 
C153: x3+x57 <=1 
C154: x3+x58-y3_58 <=1 
C155: x3+x60 <=1 
C156: x4+x6-y4_6 <=1 
C157: x4+x8 <=1 
C158: x4+x10 <=1 
C159: x4+x11-y4_11 <=1 
C160: x4+x13-y4_13 <=1 
C161: x4+x14 <=1 
C162: x4+x15-y4_15 <=1 
C163: x4+x17 <=1 
C164: x4+x19-y4_19 <=1 
C165: x4+x21-y4_21 <=1 
C166: x4+x22-y4_22 <=1 
C167: x4+x25 <=1 
C168: x4+x26 <=1 
C169: x4+x27 <=1 
C170: x4+x28 <=1 
C171: x4+x34 <=1 
C172: x4+x38 <=1 
C173: x4+x39 <=1 
C174: x4+x40 <=1 
C175: x4+x43 <=1 
C176: x4+x44 <=1 
C177: x4+x46 <=1 
C178: x4+x47-y4_47 <=1 
C179: x4+x48 <=1 
C180: x4+x50 <=1 
C181: x4+x51-y4_51 <=1 
C182: x4+x56 <=1 
C183: x4+x58-y4_58 <=1 
C184: x4+x59-y4_59 <=1 
C185: x4+x61-y4_61 <=1 
C186: x4+x62-y4_62 <=1 
C187: x4+x63 <=1 
C188: x5+x6 <=1 
C189: x5+x7-y5_7 <=1 
C190: x5+x9 <=1 
C191: x5+x11 <=1 
C192: x5+x12-y5_12 <=1 
C193: x5+x13 <=1 
C194: x5+x14-y5_14 <=1 
C195: x5+x15-y5_15 <=1 
C196: x5+x18 <=1 
C197: x5+x20 <=1 
C198: x5+x22 <=1 
C199: x5+x26 <=1 
C200: x5+x28-y5_28 <=1 
C201: x5+x29 <=1 
C202: x5+x30-y5_30 <=1 
C203: x5+x31-y5_31 <=1 
C204: x5+x34 <=1 
C205: x5+x35-y5_35 <=1 
C206: x5+x40 <=1 
C207: x5+x41-y5_41 <=1 
C208: x5+x42-y5_42 <=1 
C209: x5+x43-y5_43 <=1 
C210: x5+x44 <=1 
C211: x5+x45 <=1 
C212: x5+x47-y5_47 <=1 
C213: x5+x49-y5_49 <=1 
C214: x5+x51-y5_51 <=1 
C215: x5+x52-y5_52 <=1 
C216: x5+x59-y5_59 <=1 
C217: x5+x60 <=1 
C218: x5+x61-y5_61 <=1 
C219: x5+x62-y5_62 <=1 
C220: x6+x8 <=1 
C221: x6+x10 <=1 
C222: x6+x12 <=1 
C223: x6+x13-y6_13 <=1 
C224: x6+x14-y6_14 <=1 
C225: x6+x15-y6_15 <=1 
C226: x6+x18 <=1 
C227: x6+x19 <=1 
C228: x6+x20-y6_20 <=1 
C229: x6+x21-y6_21 <=1 
C230: x6+x22 <=1 
C231: x6+x24 <=1 
C232: x6+x26 <=1 
C233: x6+x27-y6_27 <=1 
C234: x6+x28 <=1 
C235: x6+x30-y6_30 <=1 
C236: x6+x36 <=1 
C237: x6+x40 <=1 
C238: x6+x41 <=1 
C239: x6+x42 <=1 
C240: x6+x43-y6_43 <=1 
C241: x6+x44 <=1 
C242: x6+x45-y6_45 <=1 
C243: x6+x48-y6_48 <=1 
C244: x6+x50-y6_50 <=1 
C245: x6+x51 <=1 
C246: x6+x52-y6_52 <=1 
C247: x6+x53 <=1 
C248: x6+x54-y6_54 <=1 
C249: x6+x55-y6_55 <=1 
C250: x6+x57-y6_57 <=1 
C251: x6+x59 <=1 
C252: x6+x60-y6_60 <=1 
C253: x6+x61-y6_61 <=1 
C254: x6+x62 <=1 
C255: x7+x13-y7_13 <=1 
C256: x7+x15-y7_15 <=1 
C257: x7+x16 <=1 
C258: x7+x17-y7_17 <=1 
C259: x7+x18-y7_18 <=1 
C260: x7+x19 <=1 
C261: x7+x20 <=1 
C262: x7+x21 <=1 
C263: x7+x23-y7_23 <=1 
C264: x7+x27 <=1 
C265: x7+x32-y7_32 <=1 
C266: x7+x33 <=1 
C267: x7+x34 <=1 
C268: x7+x39 <=1 
C269: x7+x40 <=1 
C270: x7+x43 <=1 
C271: x7+x45 <=1 
C272: x7+x47 <=1 
C273: x7+x48-y7_48 <=1 
C274: x7+x49-y7_49 <=1 
C275: x7+x50-y7_50 <=1 
C276: x7+x52-y7_52 <=1 
C277: x7+x53 <=1 
C278: x7+x54 <=1 
C279: x7+x55-y7_55 <=1 
C280: x7+x56 <=1 
C281: x7+x57 <=1 
C282: x7+x58 <=1 
C283: x7+x60-y7_60 <=1 
C284: x8+x9 <=1 
C285: x8+x11 <=1 
C286: x8+x12-y8_12 <=1 
C287: x8+x13-y8_13 <=1 
C288: x8+x14-y8_14 <=1 
C289: x8+x17-y8_17 <=1 
C290: x8+x18-y8_18 <=1 
C291: x8+x19 <=1 
C292: x8+x23-y8_23 <=1 
C293: x8+x24-y8_24 <=1 
C294: x8+x25-y8_25 <=1 
C295: x8+x26-y8_26 <=1 
C296: x8+x31-y8_31 <=1 
C297: x8+x32 <=1 
C298: x8+x34-y8_34 <=1 
C299: x8+x35 <=1 
C300: x8+x36-y8_36 <=1 
C301: x8+x39-y8_39 <=1 
C302: x8+x41 <=1 
C303: x8+x42 <=1 
C304: x8+x43-y8_43 <=1 
C305: x8+x44 <=1 
C306: x8+x45 <=1 
C307: x8+x46-y8_46 <=1 
C308: x8+x47 <=1 
C309: x8+x49 <=1 
C310: x8+x50 <=1 
C311: x8+x51-y8_51 <=1 
C312: x8+x52-y8_52 <=1 
C313: x8+x55 <=1 
C314: x8+x56 <=1 
C315: x8+x58 <=1 
C316: x8+x60 <=1 
C317: x8+x62 <=1 
C318: x8+x63-y8_63 <=1 
C319: x9+x13-y9_13 <=1 
C320: x9+x15-y9_15 <=1 
C321: x9+x16 <=1 
C322: x9+x22-y9_22 <=1 
C323: x9+x23-y9_23 <=1 
C324: x9+x24 <=1 
C325: x9+x27 <=1 
C326: x9+x28-y9_28 <=1 
C327: x9+x30-y9_30 <=1 
C328: x9+x31-y9_31 <=1 
C329: x9+x32-y9_32 <=1 
C330: x9+x33-y9_33 <=1 
C331: x9+x35 <=1 
C332: x9+x40-y9_40 <=1 
C333: x9+x41-y9_41 <=1 
C334: x9+x42 <=1 
C335: x9+x43-y9_43 <=1 
C336: x9+x44 <=1 
C337: x9+x47 <=1 
C338: x9+x48 <=1 
C339: x9+x49-y9_49 <=1 
C340: x9+x51-y9_51 <=1 
C341: x9+x52 <=1 
C342: x9+x53 <=1 
C343: x9+x54-y9_54 <=1 
C344: x9+x55 <=1 
C345: x9+x56 <=1 
C346: x9+x57 <=1 
C347: x9+x58-y9_58 <=1 
C348: x9+x59-y9_59 <=1 
C349: x9+x60 <=1 
C350: x9+x61-y9_61 <=1 
C351: x9+x62-y9_62 <=1 
C352: x10+x11-y10_11 <=1 
C353: x10+x12-y10_12 <=1 
C354: x10+x13-y10_13 <=1 
C355: x10+x14 <=1 
C356: x10+x16 <=1 
C357: x10+x21-y10_21 <=1 
C358: x10+x23-y10_23 <=1 
C359: x10+x24-y10_24 <=1 
C360: x10+x26 <=1 
C361: x10+x27-y10_27 <=1 
C362: x10+x28-y10_28 <=1 
C363: x10+x29-y10_29 <=1 
C364: x10+x31-y10_31 <=1 
C365: x10+x32-y10_32 <=1 
C366: x10+x33 <=1 
C367: x10+x39-y10_39 <=1 
C368: x10+x41 <=1 
C369: x10+x42-y10_42 <=1 
C370: x10+x43-y10_43 <=1 
C371: x10+x45 <=1 
C372: x10+x47 <=1 
C373: x10+x48-y10_48 <=1 
C374: x10+x49-y10_49 <=1 
C375: x10+x50-y10_50 <=1 
C376: x10+x52 <=1 
C377: x10+x58 <=1 
C378: x11+x12 <=1 
C379: x11+x13 <=1 
C380: x11+x14 <=1 
C381: x11+x16-y11_16 <=1 
C382: x11+x17-y11_17 <=1 
C383: x11+x19 <=1 
C384: x11+x22-y11_22 <=1 
C385: x11+x26-y11_26 <=1 
C386: x11+x27-y11_27 <=1 
C387: x11+x29 <=1 
C388: x11+x30 <=1 
C389: x11+x32-y11_32 <=1 
C390: x11+x36-y11_36 <=1 
C391: x11+x37 <=1 
C392: x11+x38 <=1 
C393: x11+x39 <=1 
C394: x11+x41-y11_41 <=1 
C395: x11+x44-y11_44 <=1 
C396: x11+x46 <=1 
C397: x11+x50-y11_50 <=1 
C398: x11+x52 <=1 
C399: x11+x53 <=1 
C400: x11+x55 <=1 
C401: x11+x57 <=1 
C402: x11+x58-y11_58 <=1 
C403: x11+x59 <=1 
C404: x11+x60-y11_60 <=1 
C405: x11+x61-y11_61 <=1 
C406: x11+x62 <=1 
C407: x11+x63-y11_63 <=1 
C408: x12+x14-y12_14 <=1 
C409: x12+x15-y12_15 <=1 
C410: x12+x17-y12_17 <=1 
C411: x12+x18 <=1 
C412: x12+x19 <=1 
C413: x12+x21-y12_21 <=1 
C414: x12+x27-y12_27 <=1 
C415: x12+x28 <=1 
C416: x12+x29-y12_29 <=1 
C417: x12+x30 <=1 
C418: x12+x31 <=1 
C419: x12+x33-y12_33 <=1 
C420: x12+x36-y12_36 <=1 
C421: x12+x37 <=1 
C422: x12+x38-y12_38 <=1 
C423: x12+x39-y12_39 <=1 
C424: x12+x43 <=1 
C425: x12+x45 <=1 
C426: x12+x46-y12_46 <=1 
C427: x12+x47-y12_47 <=1 
C428: x12+x51 <=1 
C429: x12+x52 <=1 
C430: x12+x55 <=1 
C431: x12+x57-y12_57 <=1 
C432: x12+x59 <=1 
C433: x12+x60-y12_60 <=1 
C434: x12+x61 <=1 
C435: x12+x63-y12_63 <=1 
C436: x13+x14-y13_14 <=1 
C437: x13+x15-y13_15 <=1 
C438: x13+x16-y13_16 <=1 
C439: x13+x17 <=1 
C440: x13+x19-y13_19 <=1 
C441: x13+x20 <=1 
C442: x13+x22 <=1 
C443: x13+x24-y13_24 <=1 
C444: x13+x25-y13_25 <=1 
C445: x13+x26 <=1 
C446: x13+x27-y13_27 <=1 
C447: x13+x28 <=1 
C448: x13+x30 <=1 
C449: x13+x31-y13_31 <=1 
C450: x13+x33 <=1 
C451: x13+x36-y13_36 <=1 
C452: x13+x38-y13_38 <=1 
C453: x13+x39 <=1 
C454: x13+x40-y13_40 <=1 
C455: x13+x45 <=1 
C456: x13+x46 <=1 
C457: x13+x47 <=1 
C458: x13+x48 <=1 
C459: x13+x50-y13_50 <=1 
C460: x13+x51 <=1 
C461: x13+x52 <=1 
C462: x13+x53-y13_53 <=1 
C463: x13+x55 <=1 
C464: x13+x56-y13_56 <=1 
C465: x13+x57 <=1 
C466: x13+x59 <=1 
C467: x13+x60 <=1 
C468: x13+x61 <=1 
C469: x13+x62-y13_62 <=1 
C470: x13+x63 <=1 
C471: x14+x15-y14_15 <=1 
C472: x14+x16-y14_16 <=1 
C473: x14+x18-y14_18 <=1 
C474: x14+x19-y14_19 <=1 
C475: x14+x21 <=1 
C476: x14+x23 <=1 
C477: x14+x25 <=1 
C478: x14+x27-y14_27 <=1 
C479: x14+x29 <=1 
C480: x14+x33 <=1 
C481: x14+x35-y14_35 <=1 
C482: x14+x36 <=1 
C483: x14+x37 <=1 
C484: x14+x38-y14_38 <=1 
C485: x14+x40-y14_40 <=1 
C486: x14+x41-y14_41 <=1 
C487: x14+x43 <=1 
C488: x14+x44-y14_44 <=1 
C489: x14+x45 <=1 
C490: x14+x46 <=1 
C491: x14+x49 <=1 
C492: x14+x50-y14_50 <=1 
C493: x14+x51-y14_51 <=1 
C494: x14+x52-y14_52 <=1 
C495: x14+x55 <=1 
C496: x14+x56-y14_56 <=1 
C497: x14+x57 <=1 
C498: x14+x58 <=1 
C499: x14+x59 <=1 
C500: x14+x60 <=1 
C501: x14+x61-y14_61 <=1 
C502: x14+x62-y14_62 <=1 
C503: x14+x63 <=1 
C504: x15+x16-y15_16 <=1 
C505: x15+x17 <=1 
C506: x15+x18 <=1 
C507: x15+x20-y15_20 <=1 
C508: x15+x21-y15_21 <=1 
C509: x15+x23 <=1 
C510: x15+x25 <=1 
C511: x15+x26-y15_26 <=1 
C512: x15+x27-y15_27 <=1 
C513: x15+x28-y15_28 <=1 
C514: x15+x29-y15_29 <=1 
C515: x15+x31-y15_31 <=1 
C516: x15+x32-y15_32 <=1 
C517: x15+x33-y15_33 <=1 
C518: x15+x34-y15_34 <=1 
C519: x15+x35-y15_35 <=1 
C520: x15+x36 <=1 
C521: x15+x37-y15_37 <=1 
C522: x15+x39-y15_39 <=1 
C523: x15+x40-y15_40 <=1 
C524: x15+x44-y15_44 <=1 
C525: x15+x46 <=1 
C526: x15+x47-y15_47 <=1 
C527: x15+x48-y15_48 <=1 
C528: x15+x49 <=1 
C529: x15+x50-y15_50 <=1 
C530: x15+x51 <=1 
C531: x15+x53-y15_53 <=1 
C532: x15+x55-y15_55 <=1 
C533: x15+x59-y15_59 <=1 
C534: x15+x62 <=1 
C535: x15+x63-y15_63 <=1 
C536: x16+x17-y16_17 <=1 
C537: x16+x20-y16_20 <=1 
C538: x16+x21 <=1 
C539: x16+x23 <=1 
C540: x16+x24 <=1 
C541: x16+x25-y16_25 <=1 
C542: x16+x26-y16_26 <=1 
C543: x16+x29-y16_29 <=1 
C544: x16+x30-y16_30 <=1 
C545: x16+x32-y16_32 <=1 
C546: x16+x33 <=1 
C547: x16+x34 <=1 
C548: x16+x35-y16_35 <=1 
C549: x16+x37-y16_37 <=1 
C550: x16+x38-y16_38 <=1 
C551: x16+x39 <=1 
C552: x16+x45-y16_45 <=1 
C553: x16+x47 <=1 
C554: x16+x48 <=1 
C555: x16+x50-y16_50 <=1 
C556: x16+x51-y16_51 <=1 
C557: x16+x53 <=1 
C558: x16+x54-y16_54 <=1 
C559: x16+x61-y16_61 <=1 
C560: x16+x63 <=1 
C561: x17+x18 <=1 
C562: x17+x19-y17_19 <=1 
C563: x17+x22 <=1 
C564: x17+x24-y17_24 <=1 
C565: x17+x25-y17_25 <=1 
C566: x17+x26 <=1 
C567: x17+x27 <=1 
C568: x17+x29-y17_29 <=1 
C569: x17+x34-y17_34 <=1 
C570: x17+x37-y17_37 <=1 
C571: x17+x38 <=1 
C572: x17+x41 <=1 
C573: x17+x45 <=1 
C574: x17+x47-y17_47 <=1 
C575: x17+x48-y17_48 <=1 
C576: x17+x49-y17_49 <=1 
C577: x17+x50 <=1 
C578: x17+x53 <=1 
C579: x17+x54-y17_54 <=1 
C580: x17+x56-y17_56 <=1 
C581: x17+x59 <=1 
C582: x17+x61 <=1 
C583: x18+x21-y18_21 <=1 
C584: x18+x22 <=1 
C585: x18+x23 <=1 
C586: x18+x26-y18_26 <=1 
C587: x18+x27-y18_27 <=1 
C588: x18+x29 <=1 
C589: x18+x30 <=1 
C590: x18+x32 <=1 
C591: x18+x33-y18_33 <=1 
C592: x18+x35 <=1 
C593: x18+x36-y18_36 <=1 
C594: x18+x37-y18_37 <=1 
C595: x18+x40-y18_40 <=1 
C596: x18+x42-y18_42 <=1 
C597: x18+x44-y18_44 <=1 
C598: x18+x45 <=1 
C599: x18+x46-y18_46 <=1 
C600: x18+x49 <=1 
C601: x18+x50-y18_50 <=1 
C602: x18+x51 <=1 
C603: x18+x52 <=1 
C604: x18+x55-y18_55 <=1 
C605: x18+x56 <=1 
C606: x18+x57-y18_57 <=1 
C607: x18+x63 <=1 
C608: x19+x21-y19_21 <=1 
C609: x19+x22-y19_22 <=1 
C610: x19+x23 <=1 
C611: x19+x24 <=1 
C612: x19+x27-y19_27 <=1 
C613: x19+x28 <=1 
C614: x19+x30-y19_30 <=1 
C615: x19+x31-y19_31 <=1 
C616: x19+x34-y19_34 <=1 
C617: x19+x36 <=1 
C618: x19+x37-y19_37 <=1 
C619: x19+x39-y19_39 <=1 
C620: x19+x40 <=1 
C621: x19+x41-y19_41 <=1 
C622: x19+x42-y19_42 <=1 
C623: x19+x44-y19_44 <=1 
C624: x19+x45-y19_45 <=1 
C625: x19+x46 <=1 
C626: x19+x47-y19_47 <=1 
C627: x19+x48-y19_48 <=1 
C628: x19+x50-y19_50 <=1 
C629: x19+x51 <=1 
C630: x19+x53 <=1 
C631: x19+x54 <=1 
C632: x19+x56-y19_56 <=1 
C633: x19+x58 <=1 
C634: x19+x59-y19_59 <=1 
C635: x19+x63-y19_63 <=1 
C636: x20+x21 <=1 
C637: x20+x22-y20_22 <=1 
C638: x20+x24 <=1 
C639: x20+x25-y20_25 <=1 
C640: x20+x27 <=1 
C641: x20+x29 <=1 
C642: x20+x33 <=1 
C643: x20+x34-y20_34 <=1 
C644: x20+x35 <=1 
C645: x20+x36-y20_36 <=1 
C646: x20+x39-y20_39 <=1 
C647: x20+x40-y20_40 <=1 
C648: x20+x43-y20_43 <=1 
C649: x20+x46-y20_46 <=1 
C650: x20+x49 <=1 
C651: x20+x50 <=1 
C652: x20+x52-y20_52 <=1 
C653: x20+x54 <=1 
C654: x20+x55 <=1 
C655: x20+x56 <=1 
C656: x20+x57 <=1 
C657: x20+x59-y20_59 <=1 
C658: x20+x60-y20_60 <=1 
C659: x20+x61-y20_61 <=1 
C660: x20+x62-y20_62 <=1 
C661: x21+x22 <=1 
C662: x21+x23 <=1 
C663: x21+x24-y21_24 <=1 
C664: x21+x25-y21_25 <=1 
C665: x21+x27-y21_27 <=1 
C666: x21+x29-y21_29 <=1 
C667: x21+x32-y21_32 <=1 
C668: x21+x37-y21_37 <=1 
C669: x21+x38-y21_38 <=1 
C670: x21+x39-y21_39 <=1 
C671: x21+x42-y21_42 <=1 
C672: x21+x43-y21_43 <=1 
C673: x21+x45-y21_45 <=1 
C674: x21+x48-y21_48 <=1 
C675: x21+x51 <=1 
C676: x21+x54 <=1 
C677: x21+x56 <=1 
C678: x21+x57-y21_57 <=1 
C679: x21+x58-y21_58 <=1 
C680: x21+x59-y21_59 <=1 
C681: x21+x62-y21_62 <=1 
C682: x21+x63 <=1 
C683: x22+x23-y22_23 <=1 
C684: x22+x24-y22_24 <=1 
C685: x22+x25 <=1 
C686: x22+x27-y22_27 <=1 
C687: x22+x30 <=1 
C688: x22+x36 <=1 
C689: x22+x37-y22_37 <=1 
C690: x22+x38-y22_38 <=1 
C691: x22+x44 <=1 
C692: x22+x46-y22_46 <=1 
C693: x22+x48-y22_48 <=1 
C694: x22+x50-y22_50 <=1 
C695: x22+x51 <=1 
C696: x22+x52-y22_52 <=1 
C697: x22+x53-y22_53 <=1 
C698: x22+x55-y22_55 <=1 
C699: x22+x56 <=1 
C700: x22+x58-y22_58 <=1 
C701: x22+x59 <=1 
C702: x22+x61-y22_61 <=1 
C703: x22+x62-y22_62 <=1 
C704: x22+x63 <=1 
C705: x23+x25 <=1 
C706: x23+x26 <=1 
C707: x23+x29-y23_29 <=1 
C708: x23+x30 <=1 
C709: x23+x32-y23_32 <=1 
C710: x23+x33-y23_33 <=1 
C711: x23+x35 <=1 
C712: x23+x37 <=1 
C713: x23+x38-y23_38 <=1 
C714: x23+x41-y23_41 <=1 
C715: x23+x42-y23_42 <=1 
C716: x23+x45-y23_45 <=1 
C717: x23+x46 <=1 
C718: x23+x47-y23_47 <=1 
C719: x23+x49-y23_49 <=1 
C720: x23+x50-y23_50 <=1 
C721: x23+x51-y23_51 <=1 
C722: x23+x52-y23_52 <=1 
C723: x23+x53-y23_53 <=1 
C724: x23+x54 <=1 
C725: x23+x55-y23_55 <=1 
C726: x23+x56-y23_56 <=1 
C727: x23+x57 <=1 
C728: x23+x59-y23_59 <=1 
C729: x23+x60 <=1 
C730: x23+x62-y23_62 <=1 
C731: x23+x63-y23_63 <=1 
C732: x24+x27 <=1 
C733: x24+x28 <=1 
C734: x24+x29-y24_29 <=1 
C735: x24+x31-y24_31 <=1 
C736: x24+x35 <=1 
C737: x24+x36 <=1 
C738: x24+x37 <=1 
C739: x24+x38-y24_38 <=1 
C740: x24+x39 <=1 
C741: x24+x44 <=1 
C742: x24+x46-y24_46 <=1 
C743: x24+x48-y24_48 <=1 
C744: x24+x49 <=1 
C745: x24+x50-y24_50 <=1 
C746: x24+x51-y24_51 <=1 
C747: x24+x54 <=1 
C748: x24+x56-y24_56 <=1 
C749: x24+x57-y24_57 <=1 
C750: x24+x59-y24_59 <=1 
C751: x24+x60 <=1 
C752: x24+x61 <=1 
C753: x24+x62 <=1 
C754: x24+x63 <=1 
C755: x25+x28-y25_28 <=1 
C756: x25+x29-y25_29 <=1 
C757: x25+x30-y25_30 <=1 
C758: x25+x31 <=1 
C759: x25+x32-y25_32 <=1 
C760: x25+x35 <=1 
C761: x25+x36-y25_36 <=1 
C762: x25+x39 <=1 
C763: x25+x40 <=1 
C764: x25+x44-y25_44 <=1 
C765: x25+x45 <=1 
C766: x25+x46-y25_46 <=1 
C767: x25+x47 <=1 
C768: x25+x48 <=1 
C769: x25+x50-y25_50 <=1 
C770: x25+x51 <=1 
C771: x25+x54-y25_54 <=1 
C772: x25+x55-y25_55 <=1 
C773: x25+x56-y25_56 <=1 
C774: x25+x57-y25_57 <=1 
C775: x25+x63 <=1 
C776: x26+x27-y26_27 <=1 
C777: x26+x28-y26_28 <=1 
C778: x26+x30-y26_30 <=1 
C779: x26+x32-y26_32 <=1 
C780: x26+x34 <=1 
C781: x26+x35-y26_35 <=1 
C782: x26+x36-y26_36 <=1 
C783: x26+x37-y26_37 <=1 
C784: x26+x38-y26_38 <=1 
C785: x26+x39 <=1 
C786: x26+x40 <=1 
C787: x26+x42-y26_42 <=1 
C788: x26+x45 <=1 
C789: x26+x48-y26_48 <=1 
C790: x26+x50 <=1 
C791: x26+x51 <=1 
C792: x26+x53 <=1 
C793: x26+x56-y26_56 <=1 
C794: x26+x59-y26_59 <=1 
C795: x26+x60 <=1 
C796: x27+x28-y27_28 <=1 
C797: x27+x29-y27_29 <=1 
C798: x27+x30-y27_30 <=1 
C799: x27+x31-y27_31 <=1 
C800: x27+x32 <=1 
C801: x27+x33 <=1 
C802: x27+x34 <=1 
C803: x27+x35-y27_35 <=1 
C804: x27+x37 <=1 
C805: x27+x38-y27_38 <=1 
C806: x27+x40-y27_40 <=1 
C807: x27+x43-y27_43 <=1 
C808: x27+x45 <=1 
C809: x27+x46 <=1 
C810: x27+x47-y27_47 <=1 
C811: x27+x48 <=1 
C812: x27+x50 <=1 
C813: x27+x51 <=1 
C814: x27+x52 <=1 
C815: x27+x55 <=1 
C816: x27+x56 <=1 
C817: x27+x57 <=1 
C818: x27+x58-y27_58 <=1 
C819: x27+x59-y27_59 <=1 
C820: x27+x61-y27_61 <=1 
C821: x27+x62-y27_62 <=1 
C822: x27+x63-y27_63 <=1 
C823: x28+x29-y28_29 <=1 
C824: x28+x33 <=1 
C825: x28+x36 <=1 
C826: x28+x37-y28_37 <=1 
C827: x28+x38-y28_38 <=1 
C828: x28+x39 <=1 
C829: x28+x40 <=1 
C830: x28+x43 <=1 
C831: x28+x45 <=1 
C832: x28+x46 <=1 
C833: x28+x47-y28_47 <=1 
C834: x28+x49-y28_49 <=1 
C835: x28+x52-y28_52 <=1 
C836: x28+x53-y28_53 <=1 
C837: x28+x54 <=1 
C838: x28+x55-y28_55 <=1 
C839: x28+x57 <=1 
C840: x28+x58 <=1 
C841: x28+x60 <=1 
C842: x28+x61 <=1 
C843: x28+x62 <=1 
C844: x28+x63 <=1 
C845: x29+x31-y29_31 <=1 
C846: x29+x33-y29_33 <=1 
C847: x29+x37 <=1 
C848: x29+x39-y29_39 <=1 
C849: x29+x40 <=1 
C850: x29+x41 <=1 
C851: x29+x42-y29_42 <=1 
C852: x29+x44 <=1 
C853: x29+x45 <=1 
C854: x29+x46-y29_46 <=1 
C855: x29+x47 <=1 
C856: x29+x49 <=1 
C857: x29+x50 <=1 
C858: x29+x51 <=1 
C859: x29+x53 <=1 
C860: x29+x56-y29_56 <=1 
C861: x29+x57 <=1 
C862: x29+x58-y29_58 <=1 
C863: x29+x59-y29_59 <=1 
C864: x29+x60-y29_60 <=1 
C865: x29+x62 <=1 
C866: x29+x63-y29_63 <=1 
C867: x30+x32-y30_32 <=1 
C868: x30+x33 <=1 
C869: x30+x34 <=1 
C870: x30+x35 <=1 
C871: x30+x37-y30_37 <=1 
C872: x30+x38 <=1 
C873: x30+x39-y30_39 <=1 
C874: x30+x40 <=1 
C875: x30+x42 <=1 
C876: x30+x43-y30_43 <=1 
C877: x30+x44-y30_44 <=1 
C878: x30+x45 <=1 
C879: x30+x46-y30_46 <=1 
C880: x30+x47-y30_47 <=1 
C881: x30+x51 <=1 
C882: x30+x52-y30_52 <=1 
C883: x30+x54 <=1 
C884: x30+x55 <=1 
C885: x30+x56 <=1 
C886: x30+x57 <=1 
C887: x30+x59-y30_59 <=1 
C888: x30+x60-y30_60 <=1 
C889: x30+x61-y30_61 <=1 
C890: x31+x32 <=1 
C891: x31+x33 <=1 
C892: x31+x34-y31_34 <=1 
C893: x31+x35 <=1 
C894: x31+x36 <=1 
C895: x31+x37-y31_37 <=1 
C896: x31+x38-y31_38 <=1 
C897: x31+x40 <=1 
C898: x31+x41-y31_41 <=1 
C899: x31+x43 <=1 
C900: x31+x45-y31_45 <=1 
C901: x31+x48 <=1 
C902: x31+x54-y31_54 <=1 
C903: x31+x55 <=1 
C904: x31+x56 <=1 
C905: x31+x57-y31_57 <=1 
C906: x31+x58 <=1 
C907: x31+x59 <=1 
C908: x31+x60 <=1 
C909: x31+x61-y31_61 <=1 
C910: x31+x63 <=1 
C911: x32+x33 <=1 
C912: x32+x35 <=1 
C913: x32+x36-y32_36 <=1 
C914: x32+x37-y32_37 <=1 
C915: x32+x38-y32_38 <=1 
C916: x32+x40 <=1 
C917: x32+x41 <=1 
C918: x32+x42 <=1 
C919: x32+x43-y32_43 <=1 
C920: x32+x44-y32_44 <=1 
C921: x32+x45-y32_45 <=1 
C922: x32+x46-y32_46 <=1 
C923: x32+x48-y32_48 <=1 
C924: x32+x51-y32_51 <=1 
C925: x32+x52-y32_52 <=1 
C926: x32+x53 <=1 
C927: x32+x54-y32_54 <=1 
C928: x32+x55-y32_55 <=1 
C929: x32+x57 <=1 
C930: x32+x62-y32_62 <=1 
C931: x33+x34 <=1 
C932: x33+x35 <=1 
C933: x33+x36-y33_36 <=1 
C934: x33+x37 <=1 
C935: x33+x38 <=1 
C936: x33+x40-y33_40 <=1 
C937: x33+x41 <=1 
C938: x33+x42-y33_42 <=1 
C939: x33+x45 <=1 
C940: x33+x46 <=1 
C941: x33+x47 <=1 
C942: x33+x49 <=1 
C943: x33+x51 <=1 
C944: x33+x52 <=1 
C945: x33+x53 <=1 
C946: x33+x54 <=1 
C947: x33+x55-y33_55 <=1 
C948: x33+x59 <=1 
C949: x33+x61 <=1 
C950: x33+x62 <=1 
C951: x33+x63-y33_63 <=1 
C952: x34+x36 <=1 
C953: x34+x38-y34_38 <=1 
C954: x34+x41 <=1 
C955: x34+x42 <=1 
C956: x34+x43-y34_43 <=1 
C957: x34+x44 <=1 
C958: x34+x45 <=1 
C959: x34+x46-y34_46 <=1 
C960: x34+x48 <=1 
C961: x34+x49-y34_49 <=1 
C962: x34+x50-y34_50 <=1 
C963: x34+x51 <=1 
C964: x34+x53-y34_53 <=1 
C965: x34+x54 <=1 
C966: x34+x55-y34_55 <=1 
C967: x34+x56 <=1 
C968: x34+x57 <=1 
C969: x34+x58 <=1 
C970: x34+x59-y34_59 <=1 
C971: x34+x60 <=1 
C972: x34+x61-y34_61 <=1 
C973: x34+x62-y34_62 <=1 
C974: x34+x63 <=1 
C975: x35+x36 <=1 
C976: x35+x37-y35_37 <=1 
C977: x35+x38-y35_38 <=1 
C978: x35+x39 <=1 
C979: x35+x40 <=1 
C980: x35+x43 <=1 
C981: x35+x44 <=1 
C982: x35+x45-y35_45 <=1 
C983: x35+x46 <=1 
C984: x35+x48 <=1 
C985: x35+x49-y35_49 <=1 
C986: x35+x50-y35_50 <=1 
C987: x35+x51-y35_51 <=1 
C988: x35+x53 <=1 
C989: x35+x54-y35_54 <=1 
C990: x35+x55 <=1 
C991: x35+x57-y35_57 <=1 
C992: x35+x59-y35_59 <=1 
C993: x35+x60 <=1 
C994: x35+x61-y35_61 <=1 
C995: x35+x63 <=1 
C996: x36+x37-y36_37 <=1 
C997: x36+x39-y36_39 <=1 
C998: x36+x40-y36_40 <=1 
C999: x36+x41 <=1 
C1000: x36+x42-y36_42 <=1 
C1001: x36+x43 <=1 
C1002: x36+x44 <=1 
C1003: x36+x45 <=1 
C1004: x36+x51-y36_51 <=1 
C1005: x36+x52-y36_52 <=1 
C1006: x36+x53 <=1 
C1007: x36+x54-y36_54 <=1 
C1008: x36+x55-y36_55 <=1 
C1009: x36+x56-y36_56 <=1 
C1010: x36+x57-y36_57 <=1 
C1011: x36+x60-y36_60 <=1 
C1012: x36+x62 <=1 
C1013: x37+x38-y37_38 <=1 
C1014: x37+x39-y37_39 <=1 
C1015: x37+x40 <=1 
C1016: x37+x41 <=1 
C1017: x37+x49 <=1 
C1018: x37+x50 <=1 
C1019: x37+x52 <=1 
C1020: x37+x54 <=1 
C1021: x37+x55-y37_55 <=1 
C1022: x37+x57-y37_57 <=1 
C1023: x37+x58-y37_58 <=1 
C1024: x37+x59-y37_59 <=1 
C1025: x37+x60-y37_60 <=1 
C1026: x37+x62 <=1 
C1027: x37+x63 <=1 
C1028: x38+x39-y38_39 <=1 
C1029: x38+x41 <=1 
C1030: x38+x43-y38_43 <=1 
C1031: x38+x44-y38_44 <=1 
C1032: x38+x48-y38_48 <=1 
C1033: x38+x49-y38_49 <=1 
C1034: x38+x52-y38_52 <=1 
C1035: x38+x53 <=1 
C1036: x38+x54-y38_54 <=1 
C1037: x38+x55 <=1 
C1038: x38+x56-y38_56 <=1 
C1039: x38+x60-y38_60 <=1 
C1040: x38+x61-y38_61 <=1 
C1041: x38+x63-y38_63 <=1 
C1042: x39+x41-y39_41 <=1 
C1043: x39+x43 <=1 
C1044: x39+x44 <=1 
C1045: x39+x45 <=1 
C1046: x39+x48-y39_48 <=1 
C1047: x39+x50-y39_50 <=1 
C1048: x39+x51-y39_51 <=1 
C1049: x39+x52 <=1 
C1050: x39+x53 <=1 
C1051: x39+x54 <=1 
C1052: x39+x56 <=1 
C1053: x39+x59 <=1 
C1054: x39+x61-y39_61 <=1 
C1055: x39+x63-y39_63 <=1 
C1056: x40+x41 <=1 
C1057: x40+x43-y40_43 <=1 
C1058: x40+x44-y40_44 <=1 
C1059: x40+x47 <=1 
C1060: x40+x53 <=1 
C1061: x40+x54 <=1 
C1062: x40+x55 <=1 
C1063: x40+x56 <=1 
C1064: x40+x60 <=1 
C1065: x40+x61-y40_61 <=1 
C1066: x40+x63 <=1 
C1067: x41+x42-y41_42 <=1 
C1068: x41+x43-y41_43 <=1 
C1069: x41+x45-y41_45 <=1 
C1070: x41+x46-y41_46 <=1 
C1071: x41+x48-y41_48 <=1 
C1072: x41+x49-y41_49 <=1 
C1073: x41+x53-y41_53 <=1 
C1074: x41+x54 <=1 
C1075: x41+x55 <=1 
C1076: x41+x56-y41_56 <=1 
C1077: x41+x57-y41_57 <=1 
C1078: x41+x58-y41_58 <=1 
C1079: x41+x61-y41_61 <=1 
C1080: x41+x63-y41_63 <=1 
C1081: x42+x43-y42_43 <=1 
C1082: x42+x45 <=1 
C1083: x42+x46-y42_46 <=1 
C1084: x42+x47-y42_47 <=1 
C1085: x42+x48-y42_48 <=1 
C1086: x42+x49 <=1 
C1087: x42+x52 <=1 
C1088: x42+x55-y42_55 <=1 
C1089: x42+x56 <=1 
C1090: x42+x58 <=1 
C1091: x42+x62 <=1 
C1092: x42+x63 <=1 
C1093: x43+x45-y43_45 <=1 
C1094: x43+x46 <=1 
C1095: x43+x48-y43_48 <=1 
C1096: x43+x49-y43_49 <=1 
C1097: x43+x51-y43_51 <=1 
C1098: x43+x52-y43_52 <=1 
C1099: x43+x53 <=1 
C1100: x43+x54 <=1 
C1101: x43+x55-y43_55 <=1 
C1102: x43+x56-y43_56 <=1 
C1103: x43+x57-y43_57 <=1 
C1104: x43+x58-y43_58 <=1 
C1105: x43+x59 <=1 
C1106: x43+x60 <=1 
C1107: x43+x61-y43_61 <=1 
C1108: x43+x63 <=1 
C1109: x44+x45 <=1 
C1110: x44+x46 <=1 
C1111: x44+x47 <=1 
C1112: x44+x48 <=1 
C1113: x44+x49 <=1 
C1114: x44+x50-y44_50 <=1 
C1115: x44+x51 <=1 
C1116: x44+x52 <=1 
C1117: x44+x54 <=1 
C1118: x44+x55 <=1 
C1119: x44+x57 <=1 
C1120: x44+x58 <=1 
C1121: x44+x60-y44_60 <=1 
C1122: x44+x61-y44_61 <=1 
C1123: x44+x63-y44_63 <=1 
C1124: x45+x46-y45_46 <=1 
C1125: x45+x49 <=1 
C1126: x45+x50 <=1 
C1127: x45+x52-y45_52 <=1 
C1128: x45+x54-y45_54 <=1 
C1129: x45+x56 <=1 
C1130: x45+x57 <=1 
C1131: x45+x58-y45_58 <=1 
C1132: x45+x61-y45_61 <=1 
C1133: x45+x62 <=1 
C1134: x45+x63-y45_63 <=1 
C1135: x46+x49 <=1 
C1136: x46+x51-y46_51 <=1 
C1137: x46+x52-y46_52 <=1 
C1138: x46+x53-y46_53 <=1 
C1139: x46+x54-y46_54 <=1 
C1140: x46+x55-y46_55 <=1 
C1141: x46+x57-y46_57 <=1 
C1142: x46+x60-y46_60 <=1 
C1143: x46+x63-y46_63 <=1 
C1144: x47+x48 <=1 
C1145: x47+x50-y47_50 <=1 
C1146: x47+x51-y47_51 <=1 
C1147: x47+x52 <=1 
C1148: x47+x54-y47_54 <=1 
C1149: x47+x56-y47_56 <=1 
C1150: x47+x57-y47_57 <=1 
C1151: x47+x58-y47_58 <=1 
C1152: x47+x61 <=1 
C1153: x47+x62 <=1 
C1154: x47+x63-y47_63 <=1 
C1155: x48+x49 <=1 
C1156: x48+x51 <=1 
C1157: x48+x52-y48_52 <=1 
C1158: x48+x54-y48_54 <=1 
C1159: x48+x55-y48_55 <=1 
C1160: x48+x56-y48_56 <=1 
C1161: x48+x57-y48_57 <=1 
C1162: x48+x58 <=1 
C1163: x48+x59 <=1 
C1164: x48+x60-y48_60 <=1 
C1165: x48+x62 <=1 
C1166: x48+x63-y48_63 <=1 
C1167: x49+x50 <=1 
C1168: x49+x55-y49_55 <=1 
C1169: x49+x57-y49_57 <=1 
C1170: x49+x58-y49_58 <=1 
C1171: x49+x59 <=1 
C1172: x49+x60-y49_60 <=1 
C1173: x50+x53-y50_53 <=1 
C1174: x50+x54-y50_54 <=1 
C1175: x50+x55 <=1 
C1176: x50+x58 <=1 
C1177: x50+x60-y50_60 <=1 
C1178: x50+x62-y50_62 <=1 
C1179: x50+x63-y50_63 <=1 
C1180: x51+x52 <=1 
C1181: x51+x54-y51_54 <=1 
C1182: x51+x55-y51_55 <=1 
C1183: x51+x58 <=1 
C1184: x51+x59-y51_59 <=1 
C1185: x51+x61-y51_61 <=1 
C1186: x51+x62-y51_62 <=1 
C1187: x51+x63-y51_63 <=1 
C1188: x52+x53-y52_53 <=1 
C1189: x52+x55-y52_55 <=1 
C1190: x52+x56 <=1 
C1191: x52+x59-y52_59 <=1 
C1192: x52+x62-y52_62 <=1 
C1193: x53+x56-y53_56 <=1 
C1194: x53+x57-y53_57 <=1 
C1195: x53+x58 <=1 
C1196: x53+x59 <=1 
C1197: x53+x60-y53_60 <=1 
C1198: x53+x61 <=1 
C1199: x53+x63-y53_63 <=1 
C1200: x54+x56-y54_56 <=1 
C1201: x54+x59 <=1 
C1202: x54+x60 <=1 
C1203: x54+x62 <=1 
C1204: x55+x56 <=1 
C1205: x55+x57-y55_57 <=1 
C1206: x55+x59 <=1 
C1207: x55+x60 <=1 
C1208: x55+x61-y55_61 <=1 
C1209: x55+x63-y55_63 <=1 
C1210: x56+x57 <=1 
C1211: x56+x59-y56_59 <=1 
C1212: x56+x60 <=1 
C1213: x56+x62 <=1 
C1214: x56+x63 <=1 
C1215: x57+x58-y57_58 <=1 
C1216: x57+x59 <=1 
C1217: x57+x62 <=1 
C1218: x57+x63 <=1 
C1219: x58+x59-y58_59 <=1 
C1220: x58+x60 <=1 
C1221: x58+x63 <=1 
C1222: x59+x60-y59_60 <=1 
C1223: x59+x61 <=1 
C1224: x59+x62-y59_62 <=1 
C1225: x61+x62-y61_62 <=1 
C1226: x61+x63 <=1 
C1227: x62+x63 <=1 

binary
x0
x1
x2
x3
x4
x5
x6
x7
x8
x9
x10
x11
x12
x13
x14
x15
x16
x17
x18
x19
x20
x21
x22
x23
x24
x25
x26
x27
x28
x29
x30
x31
x32
x33
x34
x35
x36
x37
x38
x39
x40
x41
x42
x43
x44
x45
x46
x47
x48
x49
x50
x51
x52
x53
x54
x55
x56
x57
x58
x59
x60
x61
x62
x63
