problem_generation/data/GISP/train/er_n=64_m=1227_p=0.60_SET2_setparam=100.00_alpha=0.50_430.sol
objective value:                                 1268
x10                                                 1 	(obj:100)
x18                                                 1 	(obj:100)
x21                                                 1 	(obj:100)
x36                                                 1 	(obj:100)
x38                                                 1 	(obj:100)
x39                                                 1 	(obj:100)
x40                                                 1 	(obj:100)
x42                                                 1 	(obj:100)
x46                                                 1 	(obj:100)
x48                                                 1 	(obj:100)
x50                                                 1 	(obj:100)
x57                                                 1 	(obj:100)
x61                                                 1 	(obj:100)
y18_21                                              1 	(obj:-1)
y36_57                                              1 	(obj:-1)
y39_48                                              1 	(obj:-1)
y10_21                                              1 	(obj:-1)
y10_39                                              1 	(obj:-1)
y36_42                                              1 	(obj:-1)
y39_61                                              1 	(obj:-1)
y42_48                                              1 	(obj:-1)
y18_57                                              1 	(obj:-1)
y48_57                                              1 	(obj:-1)
y10_48                                              1 	(obj:-1)
y18_42                                              1 	(obj:-1)
y21_39                                              1 	(obj:-1)
y21_48                                              1 	(obj:-1)
y40_61                                              1 	(obj:-1)
y21_57                                              1 	(obj:-1)
y10_42                                              1 	(obj:-1)
y21_38                                              1 	(obj:-1)
y36_40                                              1 	(obj:-1)
y21_42                                              1 	(obj:-1)
y39_50                                              1 	(obj:-1)
y36_39                                              1 	(obj:-1)
y42_46                                              1 	(obj:-1)
y46_57                                              1 	(obj:-1)
y38_39                                              1 	(obj:-1)
y38_48                                              1 	(obj:-1)
y18_46                                              1 	(obj:-1)
y38_61                                              1 	(obj:-1)
y18_50                                              1 	(obj:-1)
y18_36                                              1 	(obj:-1)
y18_40                                              1 	(obj:-1)
y10_50                                              1 	(obj:-1)
